2 ANNO/Ricerca operativa/Esercizi_AMPL/16/es16.dat
/*
min x1 + 2x2 + 3x3 +4x4 +5x5
	x1+x2+x3+3x5<=15
	3x3+x5<=21
	12x1+x2+5x3+4x5>=7
	x1,x2,x3,x5>=0
	x4<=0
*/

set I1:= r1 r2;
set I2:= r3;
set J:= x1 x2 x3 x4 x5;
set J1:=x1 x2 x3 x5;
set J2:=x4;

param c:=
x1 1
x2 2
x3 3
x4 4
x5 5;

param b1:=
r1 15
r2 21;

param b2:=
r3 7;

param a1:
	x1	x2	x3	x4	x5=
r1	1	1	1	0	3
r2	0	0	3	0	1;

param a2:
	x1	x2	x3	x4	x5=
r3	12	1	5	0	4;

param alfa:=5;